; SLOAD SWAP1 SWAP2 SWAP1 SWAP2 POP => SWAP1 POP SLOAD SWAP1
(set-option :produce-proofs true)
; 
(set-info :status unknown)
(declare-fun storage_t ((_ BitVec 256) (_ BitVec 256) (_ BitVec 256) (_ BitVec 256) Int (_ BitVec 256)) (_ BitVec 256))
(declare-fun storage_s ((_ BitVec 256) (_ BitVec 256) (_ BitVec 256) (_ BitVec 256) Int (_ BitVec 256)) (_ BitVec 256))
(declare-fun exc_halt_t (Int) Bool)
(declare-fun exc_halt_s (Int) Bool)
(declare-fun sc_t (Int) (_ BitVec 6))
(declare-fun stack_t ((_ BitVec 256) (_ BitVec 256) (_ BitVec 256) (_ BitVec 256) Int (_ BitVec 6)) (_ BitVec 256))
(declare-fun stack_s ((_ BitVec 256) (_ BitVec 256) (_ BitVec 256) (_ BitVec 256) Int (_ BitVec 6)) (_ BitVec 256))
(declare-fun sc_s (Int) (_ BitVec 6))
(declare-fun used_gas_t ((_ BitVec 256) (_ BitVec 256) (_ BitVec 256) (_ BitVec 256) Int) Int)
(declare-fun used_gas_s ((_ BitVec 256) (_ BitVec 256) (_ BitVec 256) (_ BitVec 256) Int) Int)
(assert
 (exists ((x_0 (_ BitVec 256)) (x_1 (_ BitVec 256)) (x_2 (_ BitVec 256)) (x_SLOAD_0 (_ BitVec 256)) )(let (($x6554 (forall ((w (_ BitVec 256)) )(let ((?x9325 (storage_t x_0 x_1 x_2 x_SLOAD_0 4 w)))
 (let ((?x9468 (storage_s x_0 x_1 x_2 x_SLOAD_0 6 w)))
 (= ?x9468 ?x9325))))
 ))
 (let (($x7854 (exc_halt_t 4)))
 (let (($x772 (exc_halt_s 6)))
 (let (($x4404 (= $x772 $x7854)))
 (let (($x9579 (forall ((n (_ BitVec 6)) )(let ((?x4818 (sc_t 4)))
 (let (($x11294 (bvsle ?x4818 n)))
 (let ((?x11094 (stack_t x_0 x_1 x_2 x_SLOAD_0 4 n)))
 (let ((?x995 (stack_s x_0 x_1 x_2 x_SLOAD_0 6 n)))
 (let (($x10500 (= ?x995 ?x11094)))
 (or $x10500 $x11294)))))))
 ))
 (let ((?x4818 (sc_t 4)))
 (let ((?x926 (sc_s 6)))
 (let (($x7899 (= ?x926 ?x4818)))
 (let (($x3706 (not (and $x7899 $x9579 $x4404 $x6554))))
 (let ((?x2384 (used_gas_t x_0 x_1 x_2 x_SLOAD_0 0)))
 (let ((?x8881 (used_gas_s x_0 x_1 x_2 x_SLOAD_0 0)))
 (let (($x1640 (= ?x8881 ?x2384)))
 (let (($x6677 (forall ((w (_ BitVec 256)) )(let ((?x11469 (storage_t x_0 x_1 x_2 x_SLOAD_0 0 w)))
 (let ((?x10204 (storage_s x_0 x_1 x_2 x_SLOAD_0 0 w)))
 (= ?x10204 ?x11469))))
 ))
 (let (($x56 (exc_halt_t 0)))
 (let (($x57 (exc_halt_s 0)))
 (let (($x58 (= $x57 $x56)))
 (let (($x7118 (forall ((n (_ BitVec 6)) )(let ((?x3228 (stack_t x_0 x_1 x_2 x_SLOAD_0 0 n)))
 (let ((?x661 (stack_s x_0 x_1 x_2 x_SLOAD_0 0 n)))
 (let (($x9726 (= ?x661 ?x3228)))
 (let ((?x63 (sc_t 0)))
 (let (($x2617 (bvsle ?x63 n)))
 (or $x2617 $x9726)))))))
 ))
 (let ((?x63 (sc_t 0)))
 (let ((?x72 (sc_s 0)))
 (let (($x73 (= ?x72 ?x63)))
 (let (($x11453 (= $x7854 (or (exc_halt_t 3) (not (bvsle (_ bv0 6) (bvadd (_ bv62 6) (sc_t 3))))))))
 (let (($x327 (forall ((w (_ BitVec 256)) )(let ((?x4165 (storage_t x_0 x_1 x_2 x_SLOAD_0 3 w)))
 (let ((?x9325 (storage_t x_0 x_1 x_2 x_SLOAD_0 4 w)))
 (= ?x9325 ?x4165))))
 ))
 (let (($x4555 (forall ((n (_ BitVec 6)) )(let ((?x9916 (stack_t x_0 x_1 x_2 x_SLOAD_0 3 n)))
 (let ((?x11094 (stack_t x_0 x_1 x_2 x_SLOAD_0 4 n)))
 (or (bvsle (bvadd (_ bv62 6) (sc_t 3)) n) (= ?x11094 ?x9916)))))
 ))
 (let ((?x6438 (sc_t 3)))
 (let (($x5079 (= ?x4818 ?x6438)))
 (let (($x6418 (= (used_gas_t x_0 x_1 x_2 x_SLOAD_0 4) (+ 3 (used_gas_t x_0 x_1 x_2 x_SLOAD_0 3)))))
 (let ((?x11118 (bvadd (_ bv63 6) ?x6438)))
 (let ((?x1294 (stack_t x_0 x_1 x_2 x_SLOAD_0 3 ?x11118)))
 (let ((?x3238 (bvadd (_ bv62 6) ?x6438)))
 (let ((?x10272 (stack_t x_0 x_1 x_2 x_SLOAD_0 3 ?x3238)))
 (let ((?x946 (bvadd (_ bv63 6) ?x4818)))
 (let ((?x10319 (stack_t x_0 x_1 x_2 x_SLOAD_0 4 ?x946)))
 (let (($x6783 (exc_halt_t 3)))
 (let (($x1265 (= $x6783 (or (exc_halt_t 2) (not (bvsle (_ bv0 6) (bvadd (_ bv63 6) (sc_t 2))))))))
 (let (($x7659 (forall ((w (_ BitVec 256)) )(let ((?x8141 (storage_t x_0 x_1 x_2 x_SLOAD_0 2 w)))
 (let ((?x4165 (storage_t x_0 x_1 x_2 x_SLOAD_0 3 w)))
 (= ?x4165 ?x8141))))
 ))
 (let (($x877 (forall ((n (_ BitVec 6)) )(let ((?x9727 (stack_t x_0 x_1 x_2 x_SLOAD_0 2 n)))
 (let ((?x9916 (stack_t x_0 x_1 x_2 x_SLOAD_0 3 n)))
 (let ((?x2714 (sc_t 2)))
 (let ((?x4475 (bvadd (_ bv63 6) ?x2714)))
 (let (($x8242 (bvsle ?x4475 n)))
 (or $x8242 (= ?x9916 ?x9727))))))))
 ))
 (let ((?x2714 (sc_t 2)))
 (let (($x10099 (= ?x6438 ?x2714)))
 (let ((?x11269 (used_gas_t x_0 x_1 x_2 x_SLOAD_0 3)))
 (let ((?x4475 (bvadd (_ bv63 6) ?x2714)))
 (let ((?x6979 (stack_t x_0 x_1 x_2 x_SLOAD_0 2 ?x4475)))
 (let (($x2163 (exc_halt_t 2)))
 (let (($x4401 (= $x2163 (or (exc_halt_t 1) (not (bvsle (_ bv0 6) (bvadd (_ bv63 6) (sc_t 1))))))))
 (let (($x11257 (forall ((w (_ BitVec 256)) )(let ((?x8924 (storage_t x_0 x_1 x_2 x_SLOAD_0 1 w)))
 (let ((?x8141 (storage_t x_0 x_1 x_2 x_SLOAD_0 2 w)))
 (= ?x8141 ?x8924))))
 ))
 (let (($x10893 (forall ((n (_ BitVec 6)) )(let ((?x7154 (sc_t 1)))
 (let ((?x8231 (bvadd (_ bv63 6) ?x7154)))
 (let (($x8114 (bvsle ?x8231 n)))
 (let ((?x3217 (stack_t x_0 x_1 x_2 x_SLOAD_0 1 n)))
 (let ((?x9727 (stack_t x_0 x_1 x_2 x_SLOAD_0 2 n)))
 (or (= ?x9727 ?x3217) $x8114)))))))
 ))
 (let ((?x7154 (sc_t 1)))
 (let ((?x8231 (bvadd (_ bv63 6) ?x7154)))
 (let (($x4965 (= ?x2714 ?x8231)))
 (let ((?x811 (used_gas_t x_0 x_1 x_2 x_SLOAD_0 2)))
 (let (($x6609 (= ?x811 (+ 2 (used_gas_t x_0 x_1 x_2 x_SLOAD_0 1)))))
 (let (($x8377 (exc_halt_t 1)))
 (let (($x5121 (= $x8377 (or $x56 (not (bvsle (_ bv0 6) (bvadd (_ bv62 6) ?x63)))))))
 (let (($x1328 (forall ((w (_ BitVec 256)) )(let ((?x11469 (storage_t x_0 x_1 x_2 x_SLOAD_0 0 w)))
 (let ((?x8924 (storage_t x_0 x_1 x_2 x_SLOAD_0 1 w)))
 (= ?x8924 ?x11469))))
 ))
 (let (($x1285 (forall ((n (_ BitVec 6)) )(let ((?x3228 (stack_t x_0 x_1 x_2 x_SLOAD_0 0 n)))
 (let ((?x3217 (stack_t x_0 x_1 x_2 x_SLOAD_0 1 n)))
 (let ((?x63 (sc_t 0)))
 (let ((?x10695 (bvadd (_ bv62 6) ?x63)))
 (let (($x3936 (bvsle ?x10695 n)))
 (or $x3936 (= ?x3217 ?x3228))))))))
 ))
 (let (($x6441 (= ?x7154 ?x63)))
 (let ((?x4844 (used_gas_t x_0 x_1 x_2 x_SLOAD_0 1)))
 (let (($x10330 (= ?x4844 (+ 3 ?x2384))))
 (let (($x5308 (= (stack_t x_0 x_1 x_2 x_SLOAD_0 1 (bvadd (_ bv62 6) ?x7154)) (stack_t x_0 x_1 x_2 x_SLOAD_0 0 (bvadd (_ bv63 6) ?x63)))))
 (let (($x6695 (= (stack_t x_0 x_1 x_2 x_SLOAD_0 1 ?x8231) (stack_t x_0 x_1 x_2 x_SLOAD_0 0 (bvadd (_ bv62 6) ?x63)))))
 (let (($x2400 (= $x772 (or (exc_halt_s 5) (not (bvsle (_ bv0 6) (bvadd (_ bv63 6) (sc_s 5))))))))
 (let (($x3210 (forall ((w (_ BitVec 256)) )(let ((?x3091 (storage_s x_0 x_1 x_2 x_SLOAD_0 5 w)))
 (let ((?x9468 (storage_s x_0 x_1 x_2 x_SLOAD_0 6 w)))
 (= ?x9468 ?x3091))))
 ))
 (let (($x1243 (forall ((n (_ BitVec 6)) )(let ((?x6810 (stack_s x_0 x_1 x_2 x_SLOAD_0 5 n)))
 (let ((?x995 (stack_s x_0 x_1 x_2 x_SLOAD_0 6 n)))
 (let ((?x4319 (sc_s 5)))
 (let ((?x11455 (bvadd (_ bv63 6) ?x4319)))
 (let (($x5981 (bvsle ?x11455 n)))
 (or $x5981 (= ?x995 ?x6810))))))))
 ))
 (let ((?x4319 (sc_s 5)))
 (let ((?x11455 (bvadd (_ bv63 6) ?x4319)))
 (let (($x3192 (= ?x926 ?x11455)))
 (let ((?x7134 (used_gas_s x_0 x_1 x_2 x_SLOAD_0 6)))
 (let (($x11317 (exc_halt_s 5)))
 (let (($x10645 (= $x11317 (or (exc_halt_s 4) (not (bvsle (_ bv0 6) (bvadd (_ bv61 6) (sc_s 4))))))))
 (let (($x3540 (forall ((w (_ BitVec 256)) )(let ((?x11555 (storage_s x_0 x_1 x_2 x_SLOAD_0 4 w)))
 (let ((?x3091 (storage_s x_0 x_1 x_2 x_SLOAD_0 5 w)))
 (= ?x3091 ?x11555))))
 ))
 (let (($x10487 (forall ((n (_ BitVec 6)) )(let ((?x1429 (stack_s x_0 x_1 x_2 x_SLOAD_0 4 n)))
 (let ((?x6810 (stack_s x_0 x_1 x_2 x_SLOAD_0 5 n)))
 (let (($x354 (= ?x6810 ?x1429)))
 (or $x354 (bvsle (bvadd (_ bv61 6) (sc_s 4)) n))))))
 ))
 (let ((?x4305 (sc_s 4)))
 (let (($x5658 (= ?x4319 ?x4305)))
 (let ((?x3705 (used_gas_s x_0 x_1 x_2 x_SLOAD_0 5)))
 (let (($x10336 (= ?x3705 (+ 3 (used_gas_s x_0 x_1 x_2 x_SLOAD_0 4)))))
 (let ((?x403 (bvadd (_ bv62 6) ?x4305)))
 (let ((?x1817 (stack_s x_0 x_1 x_2 x_SLOAD_0 4 ?x403)))
 (let ((?x10239 (bvadd (_ bv63 6) ?x4305)))
 (let ((?x9225 (stack_s x_0 x_1 x_2 x_SLOAD_0 4 ?x10239)))
 (let ((?x1695 (stack_s x_0 x_1 x_2 x_SLOAD_0 5 ?x11455)))
 (let (($x7172 (exc_halt_s 4)))
 (let (($x1854 (= $x7172 (or (exc_halt_s 3) (not (bvsle (_ bv0 6) (bvadd (_ bv62 6) (sc_s 3))))))))
 (let (($x7993 (forall ((w (_ BitVec 256)) )(let ((?x9516 (storage_s x_0 x_1 x_2 x_SLOAD_0 3 w)))
 (let ((?x11555 (storage_s x_0 x_1 x_2 x_SLOAD_0 4 w)))
 (= ?x11555 ?x9516))))
 ))
 (let (($x9378 (forall ((n (_ BitVec 6)) )(let ((?x588 (stack_s x_0 x_1 x_2 x_SLOAD_0 3 n)))
 (let ((?x1429 (stack_s x_0 x_1 x_2 x_SLOAD_0 4 n)))
 (let ((?x275 (sc_s 3)))
 (let ((?x10223 (bvadd (_ bv62 6) ?x275)))
 (let (($x6192 (bvsle ?x10223 n)))
 (or $x6192 (= ?x1429 ?x588))))))))
 ))
 (let ((?x275 (sc_s 3)))
 (let (($x5735 (= ?x4305 ?x275)))
 (let ((?x2676 (used_gas_s x_0 x_1 x_2 x_SLOAD_0 4)))
 (let (($x10327 (= ?x2676 (+ 3 (used_gas_s x_0 x_1 x_2 x_SLOAD_0 3)))))
 (let (($x292 (exc_halt_s 3)))
 (let (($x10576 (= $x292 (or (exc_halt_s 2) (not (bvsle (_ bv0 6) (bvadd (_ bv61 6) (sc_s 2))))))))
 (let (($x8747 (forall ((w (_ BitVec 256)) )(let ((?x4125 (storage_s x_0 x_1 x_2 x_SLOAD_0 2 w)))
 (let ((?x9516 (storage_s x_0 x_1 x_2 x_SLOAD_0 3 w)))
 (= ?x9516 ?x4125))))
 ))
 (let (($x4142 (forall ((n (_ BitVec 6)) )(let ((?x218 (sc_s 2)))
 (let ((?x4407 (bvadd (_ bv61 6) ?x218)))
 (let (($x7381 (bvsle ?x4407 n)))
 (let ((?x6396 (stack_s x_0 x_1 x_2 x_SLOAD_0 2 n)))
 (let ((?x588 (stack_s x_0 x_1 x_2 x_SLOAD_0 3 n)))
 (let (($x2803 (= ?x588 ?x6396)))
 (or $x2803 $x7381))))))))
 ))
 (let ((?x218 (sc_s 2)))
 (let (($x6360 (= ?x275 ?x218)))
 (let ((?x945 (used_gas_s x_0 x_1 x_2 x_SLOAD_0 3)))
 (let ((?x1900 (bvadd (_ bv62 6) ?x218)))
 (let ((?x4171 (stack_s x_0 x_1 x_2 x_SLOAD_0 2 ?x1900)))
 (let ((?x10223 (bvadd (_ bv62 6) ?x275)))
 (let ((?x6627 (stack_s x_0 x_1 x_2 x_SLOAD_0 3 ?x10223)))
 (let ((?x10607 (bvadd (_ bv63 6) ?x218)))
 (let ((?x5300 (stack_s x_0 x_1 x_2 x_SLOAD_0 2 ?x10607)))
 (let ((?x413 (bvadd (_ bv63 6) ?x275)))
 (let ((?x4184 (stack_s x_0 x_1 x_2 x_SLOAD_0 3 ?x413)))
 (let (($x247 (exc_halt_s 2)))
 (let (($x9273 (= $x247 (or (exc_halt_s 1) (not (bvsle (_ bv0 6) (bvadd (_ bv62 6) (sc_s 1))))))))
 (let (($x9863 (forall ((w (_ BitVec 256)) )(let ((?x2800 (storage_s x_0 x_1 x_2 x_SLOAD_0 1 w)))
 (let ((?x4125 (storage_s x_0 x_1 x_2 x_SLOAD_0 2 w)))
 (= ?x4125 ?x2800))))
 ))
 (let (($x9153 (forall ((n (_ BitVec 6)) )(let ((?x11801 (stack_s x_0 x_1 x_2 x_SLOAD_0 1 n)))
 (let ((?x6396 (stack_s x_0 x_1 x_2 x_SLOAD_0 2 n)))
 (or (= ?x6396 ?x11801) (bvsle (bvadd (_ bv62 6) (sc_s 1)) n)))))
 ))
 (let ((?x154 (sc_s 1)))
 (let (($x3301 (= ?x218 ?x154)))
 (let ((?x2701 (used_gas_s x_0 x_1 x_2 x_SLOAD_0 2)))
 (let (($x5426 (= ?x2701 (+ 3 (used_gas_s x_0 x_1 x_2 x_SLOAD_0 1)))))
 (let ((?x4271 (bvadd (_ bv63 6) ?x154)))
 (let ((?x4399 (stack_s x_0 x_1 x_2 x_SLOAD_0 1 ?x4271)))
 (let (($x426 (= ?x4171 ?x4399)))
 (let (($x11206 (= ?x5300 (stack_s x_0 x_1 x_2 x_SLOAD_0 1 (bvadd (_ bv62 6) ?x154)))))
 (let (($x189 (exc_halt_s 1)))
 (let (($x7372 (= $x189 (or $x57 (not (bvsle (_ bv0 6) (bvadd (_ bv63 6) ?x72)))))))
 (let (($x6326 (forall ((w (_ BitVec 256)) )(let ((?x10204 (storage_s x_0 x_1 x_2 x_SLOAD_0 0 w)))
 (let ((?x2800 (storage_s x_0 x_1 x_2 x_SLOAD_0 1 w)))
 (= ?x2800 ?x10204))))
 ))
 (let (($x8121 (forall ((n (_ BitVec 6)) )(let ((?x661 (stack_s x_0 x_1 x_2 x_SLOAD_0 0 n)))
 (let ((?x11801 (stack_s x_0 x_1 x_2 x_SLOAD_0 1 n)))
 (or (bvsle (bvadd (_ bv63 6) (sc_s 0)) n) (= ?x11801 ?x661)))))
 ))
 (let (($x10069 (= ?x154 ?x72)))
 (let ((?x7376 (bvadd (_ bv63 6) ?x72)))
 (let ((?x8208 (stack_s x_0 x_1 x_2 x_SLOAD_0 0 ?x7376)))
 (let (($x7537 (forall ((w (_ BitVec 256)) )(let ((?x72 (sc_s 0)))
 (let ((?x7376 (bvadd (_ bv63 6) ?x72)))
 (let ((?x4535 (stack_s x_0 x_1 x_2 x_SLOAD_0 0 ?x7376)))
 (let ((?x10204 (storage_s x_0 x_1 x_2 x_SLOAD_0 0 w)))
 (= ?x10204 (ite (= w ?x4535) x_SLOAD_0 (_ bv0 256))))))))
 ))
 (let (($x7642 (= ?x8881 0)))
 (let (($x7461 (not $x57)))
 (let (($x1698 (= (stack_s x_0 x_1 x_2 x_SLOAD_0 0 (_ bv2 6)) x_2)))
 (let (($x7849 (= (stack_s x_0 x_1 x_2 x_SLOAD_0 0 (_ bv1 6)) x_1)))
 (let (($x10087 (= (stack_s x_0 x_1 x_2 x_SLOAD_0 0 (_ bv0 6)) x_0)))
 (let (($x5176 (= ?x72 (_ bv3 6))))
 (and $x5176 $x10087 $x7849 $x1698 $x7461 $x7642 $x7537 (= ?x4399 (storage_s x_0 x_1 x_2 x_SLOAD_0 0 ?x8208)) (= (used_gas_s x_0 x_1 x_2 x_SLOAD_0 1) (+ 200 ?x8881)) $x10069 $x8121 $x6326 $x7372 $x11206 $x426 $x5426 $x3301 $x9153 $x9863 $x9273 (= ?x4184 (stack_s x_0 x_1 x_2 x_SLOAD_0 2 (bvadd (_ bv61 6) ?x218))) (= (stack_s x_0 x_1 x_2 x_SLOAD_0 3 (bvadd (_ bv61 6) ?x275)) ?x5300) (= ?x6627 ?x4171) (= ?x945 (+ 3 ?x2701)) $x6360 $x4142 $x8747 $x10576 (= ?x9225 ?x6627) (= ?x1817 ?x4184) $x10327 $x5735 $x9378 $x7993 $x1854 (= ?x1695 (stack_s x_0 x_1 x_2 x_SLOAD_0 4 (bvadd (_ bv61 6) ?x4305))) (= (stack_s x_0 x_1 x_2 x_SLOAD_0 5 (bvadd (_ bv61 6) ?x4319)) ?x9225) (= (stack_s x_0 x_1 x_2 x_SLOAD_0 5 (bvadd (_ bv62 6) ?x4319)) ?x1817) $x10336 $x5658 $x10487 $x3540 $x10645 (= ?x7134 (+ 2 ?x3705)) $x3192 $x1243 $x3210 $x2400 $x6695 $x5308 $x10330 $x6441 $x1285 $x1328 $x5121 $x6609 $x4965 $x10893 $x11257 $x4401 (= ?x1294 (storage_t x_0 x_1 x_2 x_SLOAD_0 2 ?x6979)) (= ?x11269 (+ 200 ?x811)) $x10099 $x877 $x7659 $x1265 (= ?x10319 ?x10272) (= (stack_t x_0 x_1 x_2 x_SLOAD_0 4 (bvadd (_ bv62 6) ?x4818)) ?x1294) $x6418 $x5079 $x4555 $x327 $x11453 $x73 $x7118 $x58 $x6677 $x1640 $x3706))))))))))))))))))))))))))))))))))))))))))))))))))))))))))))))))))))))))))))))))))))))))))))))))))))))))))))))))))))))))))))))))))
 )
(check-sat)
(get-proof)
